NAME: line_90_7
TYPE: TSP
COMMENT: line_90_7
DIMENSION: 90
EDGE_WEIGHT_TYPE: EUC_2D
NODE_COORD_SECTION
1 0.0 445.0
2 0.0 79.0
3 0.0 833.0
4 0.0 868.0
5 0.0 402.0
6 0.0 571.0
7 0.0 588.0
8 0.0 708.0
9 0.0 286.0
10 0.0 541.0
11 0.0 237.0
12 0.0 776.0
13 0.0 217.0
14 0.0 414.0
15 0.0 479.0
16 0.0 193.0
17 0.0 184.0
18 0.0 308.0
19 0.0 278.0
20 0.0 160.0
21 0.0 578.0
22 0.0 303.0
23 0.0 350.0
24 0.0 94.0
25 0.0 630.0
26 0.0 477.0
27 0.0 535.0
28 0.0 222.0
29 0.0 492.0
30 0.0 459.0
31 0.0 529.0
32 0.0 45.0
33 0.0 681.0
34 0.0 244.0
35 0.0 585.0
36 0.0 647.0
37 0.0 591.0
38 0.0 584.0
39 0.0 378.0
40 0.0 648.0
41 0.0 309.0
42 0.0 178.0
43 0.0 277.0
44 0.0 839.0
45 0.0 564.0
46 0.0 305.0
47 0.0 372.0
48 0.0 573.0
49 0.0 348.0
50 0.0 398.0
51 0.0 124.0
52 0.0 119.0
53 0.0 358.0
54 0.0 545.0
55 0.0 490.0
56 0.0 205.0
57 0.0 256.0
58 0.0 332.0
59 0.0 380.0
60 0.0 318.0
61 0.0 583.0
62 0.0 328.0
63 0.0 364.0
64 0.0 587.0
65 0.0 693.0
66 0.0 372.0
67 0.0 435.0
68 0.0 851.0
69 0.0 387.0
70 0.0 70.0
71 0.0 797.0
72 0.0 733.0
73 0.0 489.0
74 0.0 209.0
75 0.0 565.0
76 0.0 420.0
77 0.0 94.0
78 0.0 6.0
79 0.0 176.0
80 0.0 798.0
81 0.0 242.0
82 0.0 854.0
83 0.0 604.0
84 0.0 232.0
85 0.0 255.0
86 0.0 461.0
87 0.0 629.0
88 0.0 340.0
89 0.0 813.0
90 0.0 42.0
